data/solutions/recovery/degenerate/intermediate/flexible/degenerate_intermediate_instance23/72.sol
Elapsed time: 100.09
Upper bound: 227199896.0
Planning weighted value: 8.93402284874e+11
C[0]=227199896.0
C[1]=227159336.0
C[2]=227057408.0
C[3]=226497947.0
C[4]=226242596.0
C[5]=225985993.0
C[6]=225414839.0
C[7]=225208493.0
C[8]=224262317.0
C[9]=223955802.0
C[10]=223421273.0
C[11]=0.0
y[0]=0
y[1]=2
y[2]=7
y[3]=5
y[4]=5
y[5]=3
y[6]=2
y[7]=4
y[8]=9
y[9]=7
y[10]=8
y[11]=10
y[12]=0
y[13]=6
y[14]=9
y[15]=8
y[16]=0
y[17]=1
y[18]=6
y[19]=0
y[20]=6
y[21]=1
y[22]=7
y[23]=4
y[24]=3
y[25]=9
y[26]=3
y[27]=9
y[28]=4
y[29]=6
y[30]=4
y[31]=5
y[32]=1
y[33]=1
y[34]=5
y[35]=4
y[36]=2
y[37]=8
y[38]=10
y[39]=1
y[40]=6
y[41]=8
y[42]=8
y[43]=7
y[44]=3
y[45]=5
y[46]=0
y[47]=2
y[48]=0
y[49]=2
y[50]=2
y[51]=9
y[52]=10
y[53]=2
y[54]=3
y[55]=0
y[56]=8
y[57]=7
y[58]=9
y[59]=1
y[60]=10
y[61]=3
y[62]=10
y[63]=9
y[64]=5
y[65]=4
y[66]=8
y[67]=7
y[68]=0
y[69]=2
y[70]=5
y[71]=6
y[72]=7
y[73]=10
y[74]=3
y[75]=7
y[76]=1
y[77]=2
