data/solutions/recovery/degenerate/intermediate/flexible/degenerate_intermediate_instance23/72.log

Log started (V12.6.3.0) Sat Apr 21 16:29:07 2018

New value for default parallel thread count: 1

Problem '/tmp/tmp174pR2.pyomo.lp' read.
Read time = 0.01 sec. (0.85 ticks)

Problem name         : /tmp/tmp174pR2.pyomo.lp
Objective sense      : Minimize
Variables            :     950  [Nneg: 1,  Binary: 936,  General Integer: 13]
Objective nonzeros   :       1
Linear constraints   :     182  [Less: 90,  Equal: 92]
  Nonzeros           :   61117
  RHS nonzeros       :     157

Variables            : Min LB: 0.000000         Max UB: 1.000000       
Objective nonzeros   : Min   : 1.000000         Max   : 1.000000       
Linear constraints   :
  Nonzeros           : Min   : 1.000000         Max   : 6.145599e+07   
  RHS nonzeros       : Min   : 1.000000         Max   : 8.000000       
Tried aggregator 2 times.
MIP Presolve eliminated 81 rows and 140 columns.
Aggregator did 6 substitutions.
Reduced MIP has 95 rows, 804 columns, and 2247 nonzeros.
Reduced MIP has 792 binaries, 12 generals, 0 SOSs, and 0 indicators.
Presolve time = 0.01 sec. (11.04 ticks)
Found incumbent of value 8.0284233e+08 after 0.01 sec. (12.59 ticks)
Probing time = 0.00 sec. (1.59 ticks)
Tried aggregator 1 time.
Reduced MIP has 95 rows, 804 columns, and 2247 nonzeros.
Reduced MIP has 792 binaries, 12 generals, 0 SOSs, and 0 indicators.
Presolve time = 0.00 sec. (1.15 ticks)
Probing time = 0.00 sec. (1.59 ticks)
Clique table members: 72.
MIP emphasis: balance optimality and feasibility.
MIP search method: dynamic search.
Parallel mode: none, using 1 thread.
Root relaxation solution time = 0.00 sec. (1.38 ticks)

        Nodes                                         Cuts/
   Node  Left     Objective  IInf  Best Integer    Best Bound    ItCnt     Gap

*     0+    0                       8.02842e+08        0.0000           100.00%
      0     0   2.25673e+08    29   8.02842e+08   2.25673e+08      127   71.89%
      0     0   2.25673e+08    21   8.02842e+08      Fract: 5      140   71.89%
      0     0   2.25673e+08    30   8.02842e+08      Fract: 7      166   71.89%
*     0+    0                       2.57996e+08   2.25673e+08            12.53%
*     0+    0                       2.45835e+08   2.25673e+08             8.20%
*     0+    0                       2.42496e+08   2.25673e+08             6.94%
*     0+    0                       2.41643e+08   2.25673e+08             6.61%
*     0+    0                       2.34202e+08   2.25673e+08             3.64%
      0     2   2.25673e+08    19   2.34202e+08   2.25673e+08      166    3.64%
Elapsed time = 0.06 sec. (63.44 ticks, tree = 0.01 MB, solutions = 6)
*   600+  404                       2.32162e+08   2.25673e+08             2.79%
    837   581   2.30098e+08    18   2.32162e+08   2.25673e+08     5370    2.79%
    838   582   2.25673e+08    18   2.32162e+08   2.25673e+08     5371    2.79%
    839   583   2.25673e+08    22   2.32162e+08   2.25673e+08     5385    2.79%
    840   582        cutoff         2.32162e+08   2.25673e+08     5405    2.79%
    841   583   2.25673e+08    20   2.32162e+08   2.25673e+08     5407    2.79%
    842   584   2.25673e+08    23   2.32162e+08   2.25673e+08     5412    2.79%
    843   585   2.25673e+08    19   2.32162e+08   2.25673e+08     5418    2.79%
    844   586   2.25673e+08    19   2.32162e+08   2.25673e+08     5419    2.79%
    845   587   2.25673e+08    17   2.32162e+08   2.25673e+08     5420    2.79%
*  1494+ 1048                       2.31378e+08   2.25673e+08             2.47%
*  1495+ 1048                       2.31157e+08   2.25673e+08             2.37%
*  1495+ 1001                       2.30177e+08   2.25673e+08             1.96%
*  1495+  975                       2.29777e+08   2.25673e+08             1.79%
*  1697+  570                       2.29084e+08   2.25673e+08             1.49%
   1697   571   2.28022e+08    14   2.29084e+08   2.25673e+08    10335    1.49%
Elapsed time = 0.86 sec. (1043.24 ticks, tree = 0.34 MB, solutions = 12)
*  1797+  415                       2.29066e+08   2.25673e+08             1.48%
*  1897+  321                       2.28386e+08   2.25673e+08             1.19%
*  2197+  279                       2.28341e+08   2.25673e+08             1.17%
   2229   285   2.25673e+08    39   2.28341e+08   2.25673e+08    14808    1.17%
   2230   286   2.25673e+08    39   2.28341e+08   2.25673e+08    14809    1.17%
   2231   286   2.25723e+08    35   2.28341e+08   2.25673e+08    14830    1.17%
   2232   286   2.25727e+08    34   2.28341e+08   2.25673e+08    14831    1.17%
   2233   287   2.25727e+08    34   2.28341e+08   2.25673e+08    14832    1.17%
   2234   288   2.25727e+08    34   2.28341e+08   2.25673e+08    14834    1.17%
   2235   289   2.25728e+08    36   2.28341e+08   2.25673e+08    14835    1.17%
   2236   290   2.25729e+08    36   2.28341e+08   2.25673e+08    14836    1.17%
   2237   291   2.25733e+08    36   2.28341e+08   2.25673e+08    14837    1.17%
   2238   292   2.25755e+08    35   2.28341e+08   2.25673e+08    14838    1.17%
Elapsed time = 1.63 sec. (2000.14 ticks, tree = 0.18 MB, solutions = 15)
   4180  1408   2.28022e+08    12   2.28341e+08   2.25673e+08    35030    1.17%
   4181  1409   2.28022e+08    12   2.28341e+08   2.25673e+08    35044    1.17%
   4182  1410   2.28022e+08    12   2.28341e+08   2.25673e+08    35047    1.17%
   4183  1409        cutoff         2.28341e+08   2.25673e+08    35056    1.17%
   4184  1410   2.28022e+08    12   2.28341e+08   2.25673e+08    35063    1.17%
   4185  1411   2.28022e+08    12   2.28341e+08   2.25673e+08    35064    1.17%
   4186  1412   2.28022e+08    13   2.28341e+08   2.25673e+08    35066    1.17%
   4187  1413   2.28022e+08    13   2.28341e+08   2.25673e+08    35069    1.17%
   4188  1414   2.28022e+08    14   2.28341e+08   2.25673e+08    35072    1.17%
   4189  1415   2.28022e+08    14   2.28341e+08   2.25673e+08    35075    1.17%
Elapsed time = 2.36 sec. (2963.83 ticks, tree = 0.91 MB, solutions = 15)
   5667  2440   2.25957e+08    25   2.28341e+08   2.25673e+08    55429    1.17%
   5668  2441   2.25957e+08    25   2.28341e+08   2.25673e+08    55430    1.17%
   5669  2442   2.25957e+08    26   2.28341e+08   2.25673e+08    55469    1.17%
   5670  2443   2.25957e+08    26   2.28341e+08   2.25673e+08    55487    1.17%
   5671  2444   2.25957e+08    26   2.28341e+08   2.25673e+08    55500    1.17%
   5672  2445   2.25957e+08    28   2.28341e+08   2.25673e+08    55517    1.17%
   5673  2446   2.25957e+08    28   2.28341e+08   2.25673e+08    55558    1.17%
   5674  2447   2.25957e+08    28   2.28341e+08   2.25673e+08    55585    1.17%
   5675  2448   2.25957e+08    28   2.28341e+08   2.25673e+08    55586    1.17%
   5676  2449   2.25957e+08    26   2.28341e+08   2.25673e+08    55590    1.17%
Elapsed time = 3.10 sec. (3921.47 ticks, tree = 1.61 MB, solutions = 15)
   7701  3811   2.25673e+08    43   2.28341e+08   2.25673e+08    78581    1.17%
   7702  3812   2.25673e+08    43   2.28341e+08   2.25673e+08    78582    1.17%
   7703  3813   2.25673e+08    42   2.28341e+08   2.25673e+08    78585    1.17%
   7704  3814   2.25673e+08    43   2.28341e+08   2.25673e+08    78592    1.17%
   7705  3815   2.25673e+08    42   2.28341e+08   2.25673e+08    78598    1.17%
   7706  3816   2.26508e+08    34   2.28341e+08   2.25673e+08    78696    1.17%
   7707  3817   2.26508e+08    34   2.28341e+08   2.25673e+08    78699    1.17%
   7708  3817   2.26508e+08    34   2.28341e+08   2.25673e+08    78701    1.17%
   7709  3818   2.26711e+08    34   2.28341e+08   2.25673e+08    78704    1.17%
   7710  3819   2.26711e+08    34   2.28341e+08   2.25673e+08    78705    1.17%
Elapsed time = 3.84 sec. (4879.92 ticks, tree = 2.52 MB, solutions = 15)
   8998  4700        cutoff         2.28341e+08   2.25673e+08    98921    1.17%
   8999  4701   2.26931e+08    31   2.28341e+08   2.25673e+08    99014    1.17%
   9000  4700        cutoff         2.28341e+08   2.25673e+08    99040    1.17%
   9001  4701   2.28255e+08    25   2.28341e+08   2.25673e+08    99145    1.17%
   9002  4700        cutoff         2.28341e+08   2.25673e+08    99147    1.17%
   9003  4699        cutoff         2.28341e+08   2.25673e+08    99152    1.17%
   9004  4700   2.26931e+08    33   2.28341e+08   2.25673e+08    99336    1.17%
   9005  4701   2.28255e+08    20   2.28341e+08   2.25673e+08    99361    1.17%
   9006  4702   2.28255e+08    24   2.28341e+08   2.25673e+08    99367    1.17%
   9007  4703   2.28255e+08    23   2.28341e+08   2.25673e+08    99369    1.17%
Elapsed time = 4.57 sec. (5851.43 ticks, tree = 3.24 MB, solutions = 15)
  10592  5921   2.25673e+08    38   2.28341e+08   2.25673e+08   120511    1.17%
  10593  5922   2.25673e+08    41   2.28341e+08   2.25673e+08   120535    1.17%
  10594  5923   2.25673e+08    43   2.28341e+08   2.25673e+08   120561    1.17%
  10595  5924   2.25673e+08    38   2.28341e+08   2.25673e+08   120562    1.17%
  10596  5925   2.25673e+08    28   2.28341e+08   2.25673e+08   120576    1.17%
  10597  5926   2.25673e+08    23   2.28341e+08   2.25673e+08   120593    1.17%
  10598  5927   2.25673e+08    23   2.28341e+08   2.25673e+08   120595    1.17%
  10599  5928   2.25673e+08    23   2.28341e+08   2.25673e+08   120601    1.17%
  10600  5929   2.25673e+08    22   2.28341e+08   2.25673e+08   120605    1.17%
  10601  5930   2.25673e+08    24   2.28341e+08   2.25673e+08   120618    1.17%
Elapsed time = 5.38 sec. (6811.52 ticks, tree = 4.06 MB, solutions = 15)
  11457  6535   2.26360e+08    35   2.28341e+08   2.25673e+08   139006    1.17%
  11458  6536   2.27038e+08    32   2.28341e+08   2.25673e+08   139110    1.17%
  11459  6535        cutoff         2.28341e+08   2.25673e+08   139198    1.17%
  11460  6535   2.25673e+08    44   2.28341e+08   2.25673e+08   139366    1.17%
  11461  6536   2.25673e+08    35   2.28341e+08   2.25673e+08   139372    1.17%
  11462  6537   2.26500e+08    35   2.28341e+08   2.25673e+08   139470    1.17%
  11463  6538   2.26500e+08    37   2.28341e+08   2.25673e+08   139474    1.17%
  11464  6539   2.26500e+08    35   2.28341e+08   2.25673e+08   139476    1.17%
  11465  6540   2.26500e+08    34   2.28341e+08   2.25673e+08   139480    1.17%
  11466  6540   2.26500e+08    33   2.28341e+08   2.25673e+08   139483    1.17%
Elapsed time = 6.46 sec. (8138.88 ticks, tree = 4.46 MB, solutions = 15)
  12797  7572   2.25673e+08    39   2.28341e+08   2.25673e+08   159385    1.17%
  12798  7573   2.25695e+08    41   2.28341e+08   2.25673e+08   159504    1.17%
  12799  7574   2.26076e+08    33   2.28341e+08   2.25673e+08   159522    1.17%
  12800  7575   2.26076e+08    32   2.28341e+08   2.25673e+08   159531    1.17%
  12801  7576   2.26076e+08    33   2.28341e+08   2.25673e+08   159534    1.17%
  12802  7577   2.26076e+08    32   2.28341e+08   2.25673e+08   159537    1.17%
  12803  7578   2.26076e+08    32   2.28341e+08   2.25673e+08   159569    1.17%
  12804  7579   2.26076e+08    33   2.28341e+08   2.25673e+08   159572    1.17%
  12805  7580   2.26076e+08    33   2.28341e+08   2.25673e+08   159574    1.17%
  12806  7579        cutoff         2.28341e+08   2.25673e+08   159617    1.17%
Elapsed time = 7.17 sec. (9104.59 ticks, tree = 5.15 MB, solutions = 15)
  13811  8362   2.26380e+08    29   2.28341e+08   2.25673e+08   180582    1.17%
  13812  8363   2.26736e+08    16   2.28341e+08   2.25673e+08   180585    1.17%
  13813  8362        cutoff         2.28341e+08   2.25673e+08   180587    1.17%
  13814  8361        cutoff         2.28341e+08   2.25673e+08   180613    1.17%
  13815  8362   2.25695e+08    33   2.28341e+08   2.25673e+08   180842    1.17%
  13816  8363   2.27363e+08    25   2.28341e+08   2.25673e+08   180861    1.17%
  13817  8364   2.27363e+08    24   2.28341e+08   2.25673e+08   180873    1.17%
  13818  8365   2.27363e+08    24   2.28341e+08   2.25673e+08   180875    1.17%
  13819  8366   2.27363e+08    25   2.28341e+08   2.25673e+08   180879    1.17%
  15921  9745   2.26096e+08    36   2.28341e+08   2.25673e+08   236985    1.17%
Elapsed time = 10.26 sec. (12919.76 ticks, tree = 6.89 MB, solutions = 15)
  17955 11229   2.27118e+08    20   2.28341e+08   2.25673e+08   299702    1.17%
  17956 11230   2.27118e+08    24   2.28341e+08   2.25673e+08   299866    1.17%
  17957 11231   2.27118e+08    22   2.28341e+08   2.25673e+08   299888    1.17%
  17958 11232   2.27500e+08    28   2.28341e+08   2.25673e+08   300051    1.17%
  17959 11231        cutoff         2.28341e+08   2.25673e+08   300055    1.17%
  17960 11230        cutoff         2.28341e+08   2.25673e+08   300083    1.17%
  17961 11231   2.26931e+08    44   2.28341e+08   2.25673e+08   300374    1.17%
  17962 11232   2.26931e+08    39   2.28341e+08   2.25673e+08   300460    1.17%
  17963 11233   2.26931e+08    38   2.28341e+08   2.25673e+08   300462    1.17%
  17964 11234   2.26931e+08    38   2.28341e+08   2.25673e+08   300492    1.17%
Elapsed time = 12.92 sec. (16767.09 ticks, tree = 7.88 MB, solutions = 15)
  19037 11989   2.28022e+08    23   2.28341e+08   2.25673e+08   365909    1.17%
  19038 11990   2.28022e+08    28   2.28341e+08   2.25673e+08   365934    1.17%
  19039 11991   2.28022e+08    16   2.28341e+08   2.25673e+08   365949    1.17%
  19040 11992   2.28022e+08    24   2.28341e+08   2.25673e+08   365956    1.17%
  19041 11993   2.28072e+08    33   2.28341e+08   2.25673e+08   365976    1.17%
  19042 11992        cutoff         2.28341e+08   2.25673e+08   365979    1.17%
  19043 11991        cutoff         2.28341e+08   2.25673e+08   365983    1.17%
  19044 11990        cutoff         2.28341e+08   2.25673e+08   366091    1.17%
  19045 11991   2.28022e+08    32   2.28341e+08   2.25673e+08   366695    1.17%
  19046 11992   2.28022e+08    28   2.28341e+08   2.25673e+08   366793    1.17%
Elapsed time = 15.67 sec. (20617.76 ticks, tree = 8.40 MB, solutions = 15)
  20352 12976   2.25673e+08    54   2.28341e+08   2.25673e+08   424996    1.17%
  20353 12977   2.25673e+08    69   2.28341e+08   2.25673e+08   432367    1.17%
  20354 12978   2.25673e+08    61   2.28341e+08   2.25673e+08   432376    1.17%
  20355 12979   2.25673e+08    68   2.28341e+08   2.25673e+08   432381    1.17%
  20356 12980   2.25673e+08    58   2.28341e+08   2.25673e+08   432406    1.17%
  20357 12981   2.25673e+08    48   2.28341e+08   2.25673e+08   432436    1.17%
  20358 12982   2.25673e+08    71   2.28341e+08   2.25673e+08   432701    1.17%
  20359 12983   2.25673e+08    64   2.28341e+08   2.25673e+08   432707    1.17%
  20360 12984   2.25673e+08    68   2.28341e+08   2.25673e+08   432726    1.17%
  20361 12985   2.25673e+08    68   2.28341e+08   2.25673e+08   432731    1.17%
Elapsed time = 18.56 sec. (24802.45 ticks, tree = 9.18 MB, solutions = 15)
  22153 14319   2.27680e+08    30   2.28341e+08   2.25673e+08   503452    1.17%
  22154 14320   2.27680e+08    30   2.28341e+08   2.25673e+08   503458    1.17%
  22155 14321   2.27680e+08    28   2.28341e+08   2.25673e+08   503462    1.17%
  22156 14322   2.27680e+08    28   2.28341e+08   2.25673e+08   503465    1.17%
  22157 14323   2.27680e+08    27   2.28341e+08   2.25673e+08   503473    1.17%
  22158 14324   2.27680e+08    27   2.28341e+08   2.25673e+08   503480    1.17%
  22159 14325   2.27680e+08    25   2.28341e+08   2.25673e+08   503483    1.17%
  22160 14326   2.27680e+08    22   2.28341e+08   2.25673e+08   503489    1.17%
  22161 14327   2.27680e+08    21   2.28341e+08   2.25673e+08   503495    1.17%
  22162 14328   2.27680e+08    23   2.28341e+08   2.25673e+08   503496    1.17%
Elapsed time = 21.82 sec. (28624.12 ticks, tree = 10.06 MB, solutions = 15)
* 22911 14830      integral     0   2.28267e+08   2.25673e+08   526091    1.14%
* 23897+15239                       2.28126e+08   2.25673e+08             1.08%
* 23997+15276                       2.28126e+08   2.25673e+08             1.08%
  24508 15655        cutoff         2.28126e+08   2.25673e+08   575320    1.08%
  24509 15654        cutoff         2.28126e+08   2.25673e+08   575343    1.08%
  24510 15653        cutoff         2.28126e+08   2.25673e+08   575416    1.08%
  24511 15652    infeasible         2.28126e+08   2.25673e+08   575425    1.08%
  24512 15653   2.25673e+08    38   2.28126e+08   2.25673e+08   575510    1.08%
  24513 15654   2.26266e+08    36   2.28126e+08   2.25673e+08   575678    1.08%
  24514 15653        cutoff         2.28126e+08   2.25673e+08   575680    1.08%
  24515 15654   2.27391e+08    32   2.28126e+08   2.25673e+08   575998    1.08%
  24516 15653        cutoff         2.28126e+08   2.25673e+08   576019    1.08%
  24517 15652    infeasible         2.28126e+08   2.25673e+08   576036    1.08%
Elapsed time = 25.46 sec. (32466.51 ticks, tree = 11.05 MB, solutions = 18)
  26921 17409   2.26931e+08    35   2.28126e+08   2.25673e+08   646479    1.08%
  26922 17410   2.26931e+08    35   2.28126e+08   2.25673e+08   646480    1.08%
  26923 17411   2.26931e+08    36   2.28126e+08   2.25673e+08   646493    1.08%
  26924 17412   2.26931e+08    33   2.28126e+08   2.25673e+08   646514    1.08%
  26925 17413   2.26931e+08    32   2.28126e+08   2.25673e+08   646548    1.08%
  26926 17414   2.26931e+08    32   2.28126e+08   2.25673e+08   646549    1.08%
  26927 17415   2.26931e+08    32   2.28126e+08   2.25673e+08   646555    1.08%
  26928 17416   2.26931e+08    31   2.28126e+08   2.25673e+08   646558    1.08%
  26929 17417   2.26931e+08    31   2.28126e+08   2.25673e+08   646559    1.08%
  26930 17418   2.26931e+08    31   2.28126e+08   2.25673e+08   646562    1.08%
Elapsed time = 29.03 sec. (36286.34 ticks, tree = 12.72 MB, solutions = 18)
  28905 18966   2.26931e+08    40   2.28126e+08   2.25673e+08   717888    1.08%
  28906 18967   2.26931e+08    35   2.28126e+08   2.25673e+08   717902    1.08%
  28907 18968   2.26931e+08    35   2.28126e+08   2.25673e+08   717907    1.08%
  28908 18969   2.26931e+08    35   2.28126e+08   2.25673e+08   717910    1.08%
  28909 18970   2.26931e+08    34   2.28126e+08   2.25673e+08   717913    1.08%
  28910 18970   2.26931e+08    32   2.28126e+08   2.25673e+08   717936    1.08%
  28911 18971   2.26931e+08    34   2.28126e+08   2.25673e+08   717945    1.08%
  28912 18972   2.26931e+08    35   2.28126e+08   2.25673e+08   717980    1.08%
  28913 18972   2.26931e+08    35   2.28126e+08   2.25673e+08   718020    1.08%
  28914 18973   2.26931e+08    32   2.28126e+08   2.25673e+08   718042    1.08%
Elapsed time = 32.64 sec. (40117.44 ticks, tree = 13.79 MB, solutions = 18)
  31025 20543   2.25673e+08    63   2.28126e+08   2.25673e+08   793597    1.08%
  31026 20544   2.25673e+08    61   2.28126e+08   2.25673e+08   793600    1.08%
  31027 20545   2.25673e+08    54   2.28126e+08   2.25673e+08   793610    1.08%
  31028 20546   2.25673e+08    63   2.28126e+08   2.25673e+08   793798    1.08%
  31029 20547   2.25673e+08    50   2.28126e+08   2.25673e+08   793817    1.08%
  31030 20548   2.25673e+08    52   2.28126e+08   2.25673e+08   794015    1.08%
  31031 20549   2.25673e+08    64   2.28126e+08   2.25673e+08   794431    1.08%
  31032 20550   2.25673e+08    49   2.28126e+08   2.25673e+08   794448    1.08%
  31033 20551   2.25673e+08    71   2.28126e+08   2.25673e+08   794775    1.08%
  31034 20552   2.25673e+08    69   2.28126e+08   2.25673e+08   794776    1.08%
Elapsed time = 36.35 sec. (44059.87 ticks, tree = 14.84 MB, solutions = 18)
* 33477+20930                       2.28022e+08   2.25673e+08             1.03%
  33838 21239   2.25673e+08    36   2.28022e+08   2.25673e+08   864441    1.03%
  33839 21240   2.25673e+08    35   2.28022e+08   2.25673e+08   864442    1.03%
  33840 21241   2.25673e+08    35   2.28022e+08   2.25673e+08   864457    1.03%
  33841 21242   2.25673e+08    37   2.28022e+08   2.25673e+08   864459    1.03%
  33842 21243   2.25673e+08    46   2.28022e+08   2.25673e+08   864466    1.03%
  33843 21244   2.25673e+08    35   2.28022e+08   2.25673e+08   864467    1.03%
  33844 21245   2.25673e+08    36   2.28022e+08   2.25673e+08   864470    1.03%
  33845 21246   2.25673e+08    45   2.28022e+08   2.25673e+08   864478    1.03%
  33846 21247   2.25673e+08    45   2.28022e+08   2.25673e+08   864480    1.03%
  33847 21248   2.25673e+08    37   2.28022e+08   2.25673e+08   864484    1.03%
Elapsed time = 39.88 sec. (47877.57 ticks, tree = 15.18 MB, solutions = 19)
* 35997+22702                       2.27902e+08   2.25673e+08             0.98%
  36697 23200   2.26083e+08    29   2.27902e+08   2.25673e+08   928069    0.98%
  36698 23201   2.26083e+08    30   2.27902e+08   2.25673e+08   928071    0.98%
  36699 23202   2.26083e+08    30   2.27902e+08   2.25673e+08   928072    0.98%
  36700 23203   2.26285e+08    29   2.27902e+08   2.25673e+08   928087    0.98%
  36701 23204   2.26285e+08    31   2.27902e+08   2.25673e+08   928092    0.98%
  36702 23205   2.26285e+08    30   2.27902e+08   2.25673e+08   928141    0.98%
  36703 23206   2.26285e+08    30   2.27902e+08   2.25673e+08   928144    0.98%
  36704 23207   2.26285e+08    30   2.27902e+08   2.25673e+08   928153    0.98%
  36705 23208   2.26285e+08    30   2.27902e+08   2.25673e+08   928161    0.98%
  36706 23209   2.26285e+08    30   2.27902e+08   2.25673e+08   928166    0.98%
Elapsed time = 43.36 sec. (51710.03 ticks, tree = 16.44 MB, solutions = 20)
  39904 25625   2.25673e+08    34   2.27902e+08   2.25673e+08  1003046    0.98%
  39905 25626   2.25673e+08    33   2.27902e+08   2.25673e+08  1003071    0.98%
  39906 25627   2.25673e+08    39   2.27902e+08   2.25673e+08  1003146    0.98%
  39907 25626        cutoff         2.27902e+08   2.25673e+08  1003354    0.98%
  39908 25627   2.25673e+08    41   2.27902e+08   2.25673e+08  1003365    0.98%
  39909 25628   2.25673e+08    46   2.27902e+08   2.25673e+08  1003529    0.98%
  39910 25629   2.25673e+08    37   2.27902e+08   2.25673e+08  1003592    0.98%
  39911 25630   2.25673e+08    34   2.27902e+08   2.25673e+08  1003631    0.98%
  39912 25631   2.25673e+08    30   2.27902e+08   2.25673e+08  1003646    0.98%
  39913 25632   2.25673e+08    42   2.27902e+08   2.25673e+08  1003746    0.98%
Elapsed time = 46.87 sec. (55555.61 ticks, tree = 18.10 MB, solutions = 20)
* 39997+25648                       2.27875e+08   2.25673e+08             0.97%
* 40597+24995                       2.27647e+08   2.25673e+08             0.87%
  43064 26829   2.25673e+08    50   2.27647e+08   2.25673e+08  1080577    0.87%
  43065 26830   2.25673e+08    44   2.27647e+08   2.25673e+08  1080590    0.87%
  43066 26831   2.25673e+08    34   2.27647e+08   2.25673e+08  1080600    0.87%
  43067 26832   2.25673e+08    32   2.27647e+08   2.25673e+08  1080717    0.87%
  43068 26833   2.25673e+08    44   2.27647e+08   2.25673e+08  1080748    0.87%
  43069 26834   2.25673e+08    31   2.27647e+08   2.25673e+08  1080759    0.87%
  43070 26835   2.25673e+08    52   2.27647e+08   2.25673e+08  1080941    0.87%
  43071 26836   2.25673e+08    47   2.27647e+08   2.25673e+08  1080950    0.87%
  43072 26837   2.25792e+08    33   2.27647e+08   2.25673e+08  1081085    0.87%
  43073 26838   2.25792e+08    32   2.27647e+08   2.25673e+08  1081087    0.87%
Elapsed time = 50.49 sec. (59423.61 ticks, tree = 18.79 MB, solutions = 22)
  45292 28428   2.25673e+08    34   2.27647e+08   2.25673e+08  1146480    0.87%
  45293 28429   2.25673e+08    39   2.27647e+08   2.25673e+08  1146573    0.87%
  45294 28428        cutoff         2.27647e+08   2.25673e+08  1146673    0.87%
  45295 28429   2.25673e+08    38   2.27647e+08   2.25673e+08  1146676    0.87%
  45296 28430   2.25673e+08    28   2.27647e+08   2.25673e+08  1150214    0.87%
  45297 28431   2.25673e+08    40   2.27647e+08   2.25673e+08  1150534    0.87%
  45298 28432   2.25673e+08    41   2.27647e+08   2.25673e+08  1150547    0.87%
  45299 28433   2.25673e+08    31   2.27647e+08   2.25673e+08  1150555    0.87%
  45300 28434   2.25673e+08    27   2.27647e+08   2.25673e+08  1150564    0.87%
  45301 28435   2.25673e+08    38   2.27647e+08   2.25673e+08  1150637    0.87%
Elapsed time = 54.16 sec. (63427.06 ticks, tree = 19.84 MB, solutions = 22)
  48410 30825   2.26931e+08    36   2.27647e+08   2.25673e+08  1220470    0.87%
  48411 30826   2.26931e+08    32   2.27647e+08   2.25673e+08  1220509    0.87%
  48412 30827   2.26931e+08    29   2.27647e+08   2.25673e+08  1220511    0.87%
  48413 30828   2.26931e+08    28   2.27647e+08   2.25673e+08  1220514    0.87%
  48414 30829   2.26931e+08    28   2.27647e+08   2.25673e+08  1220518    0.87%
  48415 30830   2.26931e+08    27   2.27647e+08   2.25673e+08  1220519    0.87%
  48416 30831   2.26931e+08    29   2.27647e+08   2.25673e+08  1220523    0.87%
  48417 30832   2.26931e+08    31   2.27647e+08   2.25673e+08  1220545    0.87%
  48418 30833   2.26931e+08    33   2.27647e+08   2.25673e+08  1220567    0.87%
  48419 30834   2.26931e+08    31   2.27647e+08   2.25673e+08  1220569    0.87%
Elapsed time = 57.70 sec. (67256.83 ticks, tree = 21.44 MB, solutions = 22)
  51644 33160   2.25673e+08    36   2.27647e+08   2.25673e+08  1302196    0.87%
  51645 33161   2.25673e+08    36   2.27647e+08   2.25673e+08  1302197    0.87%
  51646 33162   2.25673e+08    36   2.27647e+08   2.25673e+08  1302198    0.87%
  51647 33163   2.25673e+08    36   2.27647e+08   2.25673e+08  1302199    0.87%
  51648 33164   2.25673e+08    35   2.27647e+08   2.25673e+08  1302200    0.87%
  51649 33165   2.25673e+08    36   2.27647e+08   2.25673e+08  1302235    0.87%
  51650 33166   2.25673e+08    32   2.27647e+08   2.25673e+08  1302297    0.87%
  51651 33167   2.26733e+08    30   2.27647e+08   2.25673e+08  1302362    0.87%
  51652 33166        cutoff         2.27647e+08   2.25673e+08  1302423    0.87%
  51653 33165    infeasible         2.27647e+08   2.25673e+08  1302428    0.87%
Elapsed time = 61.30 sec. (71102.45 ticks, tree = 23.94 MB, solutions = 22)
  53897 34520   2.25673e+08    20   2.27647e+08   2.25673e+08  1388305    0.87%
  53898 34521   2.25673e+08    26   2.27647e+08   2.25673e+08  1388411    0.87%
  53899 34522   2.25673e+08    38   2.27647e+08   2.25673e+08  1388502    0.87%
  53900 34523   2.25673e+08    28   2.27647e+08   2.25673e+08  1388503    0.87%
  53901 34524   2.25673e+08    22   2.27647e+08   2.25673e+08  1388603    0.87%
  53902 34525   2.25673e+08    36   2.27647e+08   2.25673e+08  1388640    0.87%
  53903 34526   2.25673e+08    23   2.27647e+08   2.25673e+08  1388646    0.87%
  53904 34527   2.25673e+08    24   2.27647e+08   2.25673e+08  1388687    0.87%
  53905 34528   2.25673e+08    33   2.27647e+08   2.25673e+08  1388743    0.87%
  53906 34529   2.25673e+08    21   2.27647e+08   2.25673e+08  1388914    0.87%
Elapsed time = 64.98 sec. (74943.30 ticks, tree = 24.81 MB, solutions = 22)
  56277 36211   2.27068e+08    26   2.27647e+08   2.25673e+08  1478389    0.87%
  56278 36212   2.27068e+08    26   2.27647e+08   2.25673e+08  1478392    0.87%
  56279 36213   2.27068e+08    26   2.27647e+08   2.25673e+08  1478396    0.87%
  56280 36213   2.27068e+08    28   2.27647e+08   2.25673e+08  1478403    0.87%
  56281 36212        cutoff         2.27647e+08   2.25673e+08  1478416    0.87%
  56282 36213   2.25673e+08    29   2.27647e+08   2.25673e+08  1478462    0.87%
  56283 36214   2.25673e+08    33   2.27647e+08   2.25673e+08  1478491    0.87%
  56284 36215   2.25673e+08    30   2.27647e+08   2.25673e+08  1478494    0.87%
  56285 36216   2.25673e+08    30   2.27647e+08   2.25673e+08  1478505    0.87%
  56286 36217   2.25673e+08    21   2.27647e+08   2.25673e+08  1478516    0.87%
Elapsed time = 68.63 sec. (78763.24 ticks, tree = 25.88 MB, solutions = 22)
  59164 38135   2.25673e+08    40   2.27647e+08   2.25673e+08  1562740    0.87%
  59165 38136   2.25673e+08    63   2.27647e+08   2.25673e+08  1562816    0.87%
  59166 38137   2.25673e+08    62   2.27647e+08   2.25673e+08  1562819    0.87%
  59167 38138   2.25673e+08    59   2.27647e+08   2.25673e+08  1562844    0.87%
  59168 38139   2.25673e+08    56   2.27647e+08   2.25673e+08  1562849    0.87%
  59169 38140   2.25673e+08    57   2.27647e+08   2.25673e+08  1562855    0.87%
  59170 38139        cutoff         2.27647e+08   2.25673e+08  1562865    0.87%
  59171 38138        cutoff         2.27647e+08   2.25673e+08  1562888    0.87%
  59172 38137        cutoff         2.27647e+08   2.25673e+08  1562927    0.87%
  59173 38138   2.25673e+08    34   2.27647e+08   2.25673e+08  1563025    0.87%
Elapsed time = 72.28 sec. (82624.88 ticks, tree = 27.12 MB, solutions = 22)
  61497 39575   2.25673e+08    32   2.27647e+08   2.25673e+08  1642914    0.87%
  61498 39574        cutoff         2.27647e+08   2.25673e+08  1642929    0.87%
  61499 39575   2.25673e+08    35   2.27647e+08   2.25673e+08  1642932    0.87%
  61500 39576   2.25673e+08    35   2.27647e+08   2.25673e+08  1642933    0.87%
  61501 39577   2.25673e+08    35   2.27647e+08   2.25673e+08  1642934    0.87%
  61502 39578   2.25694e+08    30   2.27647e+08   2.25673e+08  1642941    0.87%
  61503 39579   2.25939e+08    22   2.27647e+08   2.25673e+08  1642971    0.87%
  61504 39578        cutoff         2.27647e+08   2.25673e+08  1642976    0.87%
  61505 39577        cutoff         2.27647e+08   2.25673e+08  1643075    0.87%
  61506 39578   2.25673e+08    30   2.27647e+08   2.25673e+08  1643214    0.87%
Elapsed time = 75.96 sec. (86455.78 ticks, tree = 28.08 MB, solutions = 22)
* 62697+39671                       2.27548e+08   2.25673e+08             0.82%
  63625 40215   2.26931e+08    38   2.27548e+08   2.25673e+08  1722145    0.82%
  63626 40214        cutoff         2.27548e+08   2.25673e+08  1722147    0.82%
  63627 40213    infeasible         2.27548e+08   2.25673e+08  1722147    0.82%
  63628 40214   2.26931e+08    33   2.27548e+08   2.25673e+08  1722430    0.82%
  63629 40213        cutoff         2.27548e+08   2.25673e+08  1722445    0.82%
  63630 40212        cutoff         2.27548e+08   2.25673e+08  1722486    0.82%
  63631 40212   2.26931e+08    36   2.27548e+08   2.25673e+08  1722678    0.82%
  63632 40213   2.27422e+08    32   2.27548e+08   2.25673e+08  1722691    0.82%
  63633 40214   2.27422e+08    32   2.27548e+08   2.25673e+08  1722693    0.82%
  63634 40215   2.27422e+08    28   2.27548e+08   2.25673e+08  1722706    0.82%
Elapsed time = 79.66 sec. (90339.07 ticks, tree = 28.44 MB, solutions = 23)
* 64597+40247                       2.27482e+08   2.25673e+08             0.80%
  65679 40910   2.25673e+08    21   2.27482e+08   2.25673e+08  1803803    0.80%
  65680 40911   2.25673e+08    23   2.27482e+08   2.25673e+08  1803806    0.80%
  65681 40912   2.25673e+08    25   2.27482e+08   2.25673e+08  1803813    0.80%
  65682 40913   2.25673e+08    22   2.27482e+08   2.25673e+08  1803838    0.80%
  65683 40914   2.25673e+08    37   2.27482e+08   2.25673e+08  1804433    0.80%
  65684 40913        cutoff         2.27482e+08   2.25673e+08  1804562    0.80%
  65685 40914   2.25673e+08    25   2.27482e+08   2.25673e+08  1804571    0.80%
  65686 40915   2.25673e+08    32   2.27482e+08   2.25673e+08  1804799    0.80%
  65687 40916   2.25673e+08    31   2.27482e+08   2.25673e+08  1804801    0.80%
  65688 40917   2.26416e+08    26   2.27482e+08   2.25673e+08  1804873    0.80%
Elapsed time = 83.39 sec. (94193.53 ticks, tree = 28.84 MB, solutions = 24)
  67773 41996   2.25673e+08    24   2.27482e+08   2.25673e+08  1892419    0.80%
  67774 41997   2.25673e+08    32   2.27482e+08   2.25673e+08  1892437    0.80%
  67775 41998   2.25673e+08    30   2.27482e+08   2.25673e+08  1892484    0.80%
  67776 41999   2.25673e+08    37   2.27482e+08   2.25673e+08  1892491    0.80%
  67777 42000   2.25673e+08    24   2.27482e+08   2.25673e+08  1892499    0.80%
  67778 42001   2.25673e+08    25   2.27482e+08   2.25673e+08  1892538    0.80%
  67779 42002   2.25673e+08    26   2.27482e+08   2.25673e+08  1892562    0.80%
  67780 42003   2.25673e+08    27   2.27482e+08   2.25673e+08  1892658    0.80%
  67781 42004   2.25673e+08    23   2.27482e+08   2.25673e+08  1892668    0.80%
  67782 42005   2.25673e+08    23   2.27482e+08   2.25673e+08  1892669    0.80%
Elapsed time = 87.04 sec. (98018.18 ticks, tree = 29.52 MB, solutions = 24)
  69877 43392   2.25673e+08    49   2.27482e+08   2.25673e+08  1962964    0.80%
  69878 43393   2.25673e+08    42   2.27482e+08   2.25673e+08  1963165    0.80%
  69879 43394   2.25673e+08    46   2.27482e+08   2.25673e+08  1963167    0.80%
  69880 43395   2.25673e+08    38   2.27482e+08   2.25673e+08  1963171    0.80%
  69881 43396   2.25673e+08    41   2.27482e+08   2.25673e+08  1963187    0.80%
  69882 43397   2.25673e+08    41   2.27482e+08   2.25673e+08  1963191    0.80%
  69883 43398   2.25673e+08    35   2.27482e+08   2.25673e+08  1963306    0.80%
  69884 43399   2.25673e+08    34   2.27482e+08   2.25673e+08  1963313    0.80%
  69885 43400   2.25673e+08    35   2.27482e+08   2.25673e+08  1963314    0.80%
  69886 43399        cutoff         2.27482e+08   2.25673e+08  1963331    0.80%
Elapsed time = 90.69 sec. (101888.12 ticks, tree = 30.43 MB, solutions = 24)
  71397 44531   2.25673e+08    38   2.27482e+08   2.25673e+08  2015516    0.80%
  71398 44532   2.25673e+08    47   2.27482e+08   2.25673e+08  2015536    0.80%
  71399 44533   2.25673e+08    38   2.27482e+08   2.25673e+08  2015538    0.80%
  71400 44534   2.25673e+08    35   2.27482e+08   2.25673e+08  2015548    0.80%
  71401 44535   2.25673e+08    51   2.27482e+08   2.25673e+08  2015567    0.80%
  71402 44536   2.25673e+08    49   2.27482e+08   2.25673e+08  2015604    0.80%
  71403 44537   2.25673e+08    36   2.27482e+08   2.25673e+08  2015620    0.80%
  71404 44538   2.25673e+08    34   2.27482e+08   2.25673e+08  2015621    0.80%
  71405 44539   2.25673e+08    49   2.27482e+08   2.25673e+08  2015625    0.80%
  71406 44540   2.25673e+08    38   2.27482e+08   2.25673e+08  2015626    0.80%
Elapsed time = 94.57 sec. (105806.55 ticks, tree = 31.19 MB, solutions = 24)
  72976 45687   2.26931e+08    34   2.27482e+08   2.25673e+08  2055190    0.80%
  72977 45686        cutoff         2.27482e+08   2.25673e+08  2055196    0.80%
  72978 45685        cutoff         2.27482e+08   2.25673e+08  2055203    0.80%
  72979 45686   2.25673e+08    39   2.27482e+08   2.25673e+08  2055539    0.80%
  72980 45687   2.25673e+08    38   2.27482e+08   2.25673e+08  2055540    0.80%
  72981 45688   2.25673e+08    40   2.27482e+08   2.25673e+08  2055545    0.80%
  72982 45689   2.25673e+08    36   2.27482e+08   2.25673e+08  2055547    0.80%
  72983 45690   2.25673e+08    33   2.27482e+08   2.25673e+08  2055580    0.80%
  72984 45691   2.25673e+08    33   2.27482e+08   2.25673e+08  2055594    0.80%
  72985 45692   2.25673e+08    46   2.27482e+08   2.25673e+08  2055685    0.80%
Elapsed time = 97.94 sec. (109648.52 ticks, tree = 31.97 MB, solutions = 24)
* 73297+43444                       2.27200e+08   2.25673e+08             0.67%

Cover cuts applied:  462
Mixed integer rounding cuts applied:  7
Gomory fractional cuts applied:  8

Root node processing (before b&c):
  Real time             =    0.06 sec. (63.57 ticks)
Sequential b&c:
  Real time             =   99.94 sec. (111815.44 ticks)
                          ------------
Total (root+branch&cut) =  100.00 sec. (111879.02 ticks)

Solution pool: 25 solutions saved.

MIP - Time limit exceeded, integer feasible:  Objective =  2.2719989600e+08
Current MIP best bound =  2.2567326402e+08 (gap = 1.52663e+06, 0.67%)
Solution time =  100.00 sec.  Iterations = 2092494  Nodes = 74047 (43966)
Deterministic time = 111879.02 ticks  (1118.79 ticks/sec)


Incumbent solution written to file '/tmp/tmpAwOKav.cplex.sol'.
